(set-logic ALL)
(declare-fun seed0_value2 () String)
(declare-fun seed0_key2 () String)
(assert (and (or (and (and (and (and (and (and (and (and (and (and (and (and (and (and (and (and (and (and (and (and (not (= (ite (= (str.at (str.substr seed0_value2 0 (- (str.indexof seed0_value2 "=" 0) 0)) 0) "\u{a}") 1 0) 0)) (= (ite (= (str.at (str.substr seed0_value2 0 (- (str.indexof seed0_value2 "=" 0) 0)) 0) "\u{9}") 1 0) 0)) (= (ite (= (str.at (str.substr seed0_value2 0 (- (str.indexof seed0_value2 "=" 0) 0)) 0) " ") 1 0) 0)) (= (ite (= (str.len (str.substr seed0_value2 0 (- (str.indexof seed0_value2 "=" 0) 0))) 0) 1 0) 0)) (not (= (ite (= (str.len (str.substr seed0_value2 (+ (str.indexof seed0_value2 "=" 0) 1) (- (str.len seed0_value2) (+ (str.indexof seed0_value2 "=" 0) 1)))) 0) 1 0) 0))) (not (= (ite (str.contains seed0_value2 "=") 1 0) 0))) (= (ite (= (str.len seed0_value2) 0) 1 0) 0)) (not (= (ite (not (= (str.indexof seed0_value2 "=" 0) (- 1))) 1 0) 0))) (= (ite (str.contains seed0_value2 ",") 1 0) 0)) (= (ite (= (str.len seed0_value2) 0) 1 0) 0)) (not (= (ite (= seed0_key2 "cache-control") 1 0) 0))) (not (= (ite (= seed0_key2 "cache-control") 1 0) 0))) (>= 0 0)) (>= (- (str.indexof seed0_value2 "=" 0) 0) 0)) (>= 0 0)) (>= (- (str.indexof seed0_value2 "=" 0) 0) 0)) (>= 0 0)) (>= (- (str.indexof seed0_value2 "=" 0) 0) 0)) (>= 0 0)) (>= (- (str.indexof seed0_value2 "=" 0) 0) 0)) (>= (+ (str.indexof seed0_value2 "=" 0) 1) 0)) (str.suffixof (str.++ seed0_value2 "tO6") (str.++ seed0_key2 "GkenTOD"))) (or (>= (- (str.len seed0_value2) (+ (str.indexof seed0_value2 "=" 0) 1)) 0) (str.< (str.++ seed0_key2 "vBDoTE") (str.++ seed0_value2 "2ExzdwKfVWNXSgLOP")))))
(check-sat)
(exit)